StudentsNr = 10;
InstructorsNr = 31;
DaysNr = 1;
SlotsPerDay = 40;
AvailabilitySlotsLenght = 10;
RoomNr = 2;
ProgrammNr = 1;
DegreeNr = 3;
RolesNr = 4;
CoursesNr = 8;
InstructorsProgramm = [{1}, {1}, {1}, {1}, {1}, {1}, {1}, {1}, {1}, {1}, {1}, {1}, {1}, {1}, {1}, {1}, {1}, {1}, {1}, {1}, {1}, {1}, {1}, {1}, {1}, {1}, {1}, {1}, {1}, {1}, {1}];
InstructorRolesPerProgramm = [|{1, 3, 4, 7, 8, 10, 13, 14, 20, 21, 22, 24, 26, 27, 30}, {1, 2, 4, 8, 10, 13, 19, 20, 21, 22, 24, 26, 27}, {3, 10, 11, 12, 13, 16, 21, 27, 31}, {2, 3, 13, 16, 17, 18, 23, 24, 27, 28, 31}|];
InstructorsAvailability = [|0, 1, 1, 1, |0, 0, 1, 1, |0, 1, 1, 1, |0, 1, 1, 0, |0, 1, 1, 1, |0, 1, 1, 1, |1, 1, 0, 0, |0, 1, 1, 1, |1, 1, 1, 1, |1, 0, 0, 1, |0, 0, 0, 1, |0, 1, 1, 1, |1, 1, 1, 1, |1, 1, 1, 1, |0, 0, 0, 0, |0, 1, 1, 1, |1, 1, 1, 1, |1, 1, 1, 1, |0, 1, 0, 0, |0, 1, 1, 1, |1, 1, 1, 1, |0, 1, 1, 1, |0, 1, 1, 0, |0, 0, 0, 1, |1, 1, 0, 1, |1, 1, 1, 1, |1, 1, 1, 1, |1, 1, 1, 1, |1, 1, 1, 1, |0, 1, 1, 1, |1, 1, 0, 1|];
StudentsProgramm = [1, 1, 1, 1, 1, 1, 1, 1, 1, 1];
StudentsDegree = [2, 3, 1, 1, 2, 2, 3, 3, 2, 3];
StudentsSupervisorId = [5, 26, 15, 30, 14, 10, 30, 8, 21, 28];
StudentsCourseIds = [{3, 4, 5, 7}, {1, 2, 4, 6, 7}, {1, 2, 4, 5, 7}, {1, 2, 4, 6, 7}, {2, 5, 7, 8}, {1, 2, 6, 8}, {1, 4, 5, 7, 8}, {2, 5, 6, 7, 8}, {3, 5, 6, 7}, {1, 2, 3, 5, 6}];
StudentsAvailability = [|0, 1, 1, 1, |0, 0, 0, 0, |1, 1, 1, 1, |1, 1, 1, 1, |0, 0, 1, 1, |0, 0, 1, 1, |0, 0, 0, 1, |0, 0, 0, 1, |1, 0, 0, 1, |1, 1, 1, 1|];
TheoryticalMinCard = [0, 0, 0, 0, 0, 0, 0, 0, 0, 0];
CoursesInstructorIds = [{7, 9, 10, 12, 13, 16, 21, 22, 23, 24, 26, 28}, {2, 3, 4, 5, 8, 11, 12, 15, 17, 19, 23, 24, 25, 27, 28, 29, 31}, {1, 3, 4, 5, 11, 15, 17, 18, 23, 24, 26, 27, 28, 31}, {2, 8, 11, 13, 15, 17, 20, 22, 23, 26, 27, 29, 30}, {1, 10, 14, 21, 23, 24, 26, 29, 31}, {2, 3, 4, 5, 7, 8, 9, 11, 15, 16, 17, 18, 19, 20, 24, 26, 27, 29}, {3, 24, 25}, {2, 3, 4, 5, 6, 9, 11, 12, 16, 17, 19, 20, 22, 23, 24, 28}];
RolesDemands = [8, 6, 7, 4];
RolesContinuity = [4, 1, 2];
ExamLen = [1, 1, 2, 2, 1, 1, 1, 1, 1, 1];
LunchTsMinLen = 1;
LunchStarts = [12..24];
SupervisorAvailable = 5;
OptimalLunchLenght = [3, 1];
OptimalStartTs = [2, 0];
OptimalFinishTs = [1, 40];
MinimizeRooms = 100;
RolesSoftContinuity = [|1, 2, 3, 4|3, 0, 1, 3|];
SameDegreeInRoom = 10;
Mergeability = 2;
